47
0 0 1 1 2 3 4 2 5 3 6 4 7 8 5 9 10 11 12 9 13 1 14 6 5 15 16 7 12 17 18 8 11 19 14 20 13 21 2 15 3 22 23 21 18 24 25 26 27 28 29 25 30 31 32 33 20 27 29 31 28 34 35 36 16 28 15 14 10 37 38 32 17 39 40 30 41 39 42 43 35 33 36 43 26 26 44 34 30 24 40 41 44 45 45 37 39 46 41 22 
